(declare-fun loyer_principal_in () Int)
(declare-fun |ressources_ménage_arrondies_in| () Int)
(declare-fun date_courante_in () Int)
(declare-fun |nombre_personnes_à_charge_in| () Int)
(assert (>= loyer_principal_in 0))
(assert (>= |ressources_ménage_arrondies_in| 0))
(assert (>= date_courante_in 0))
(assert (not (<= |nombre_personnes_à_charge_in| 10)))
(check-sat)
